
Gurobi 9.5.1 (linux64) logging started Wed Mar  9 18:05:24 2022

Set parameter LogFile to value "../results/logs/log_2022_03_09_17_57.csv_7_60.log"
Set parameter Method to value 3
Gurobi Optimizer version 9.5.1 build v9.5.1rc2 (linux64)
Thread count: 8 physical cores, 8 logical processors, using up to 8 threads
Optimize a model with 628 rows, 9882 columns and 12913 nonzeros
Model fingerprint: 0x8c094ad4
Variable types: 4941 continuous, 4941 integer (4941 binary)
Coefficient statistics:
  Matrix range     [1e+00, 7e+00]
  Objective range  [1e+00, 1e+00]
  Bounds range     [1e+00, 1e+00]
  RHS range        [1e+00, 6e+01]
Found heuristic solution: objective -0.0000000
Presolve removed 393 rows and 9496 columns
Presolve time: 0.01s
Presolved: 235 rows, 386 columns, 1352 nonzeros
Extracted 86 lazy constraints
Variable types: 211 continuous, 175 integer (173 binary)

Root relaxation: objective 1.266411e+02, 86 iterations, 0.00 seconds (0.00 work units)

    Nodes    |    Current Node    |     Objective Bounds      |     Work
 Expl Unexpl |  Obj  Depth IntInf | Incumbent    BestBd   Gap | It/Node Time

     0     0  126.64106    0   40   -0.00000  126.64106      -     -    0s
H    0     0                      17.0000000  126.64106   645%     -    0s
     0     0   49.82169    0   66   17.00000   49.82169   193%     -    0s
     0     0   49.80872    0   67   17.00000   49.80872   193%     -    0s
     0     0   44.84396    0   49   17.00000   44.84396   164%     -    0s
H    0     0                      18.0000000   44.84396   149%     -    0s
     0     0   44.43301    0   37   18.00000   44.43301   147%     -    0s
     0     0   44.40375    0   38   18.00000   44.40375   147%     -    0s
     0     0   43.96546    0   43   18.00000   43.96546   144%     -    0s
     0     0   43.90630    0   41   18.00000   43.90630   144%     -    0s
     0     0   43.64442    0   30   18.00000   43.64442   142%     -    0s
     0     0   43.62780    0   34   18.00000   43.62780   142%     -    0s
H    0     0                      41.0000000   43.62780  6.41%     -    0s
     0     0   43.59801    0   32   41.00000   43.59801  6.34%     -    0s
     0     0   43.59801    0   32   41.00000   43.59801  6.34%     -    0s
     0     2   43.59801    0   32   41.00000   43.59801  6.34%     -    0s
*   91    65              12      42.0000000   43.15225  2.74%  14.1    0s

Cutting planes:
  Gomory: 25
  Implied bound: 15
  MIR: 94
  RLT: 7
  Relax-and-lift: 9
  Lazy constraints: 84

Explored 119 nodes (2059 simplex iterations) in 0.13 seconds (0.08 work units)
Thread count was 8 (of 8 available processors)

Solution count 5: 42 41 18 ... -0

Optimal solution found (tolerance 1.00e-04)
Best objective 4.200000000000e+01, best bound 4.200000000000e+01, gap 0.0000%
